row=6;
Board=[|7,0,0,1,6,0,2,0,9,0|0,0,2,5,4,8,0,0,0,0|0,0,0,3,2,6,10,8,9,0|9,0,0,6,0,4,5,0,10,1|5,0,0,0,3,0,0,1,2,0|0,7,0,4,0,0,10,6,3,0|];
bottom=[17010,16800,960,2520,1152,92160,81000,11760,14580,2240]